p cnf 100 475
1 2 3 4 5 0
6 7 8 9 10 0
11 12 13 14 15 0
16 17 18 19 20 0
21 22 23 24 25 0
26 27 28 29 30 0
31 32 33 34 35 0
36 37 38 39 40 0
41 42 43 44 45 0
46 47 48 49 50 0
51 52 53 54 55 0
56 57 58 59 60 0
61 62 63 64 65 0
66 67 68 69 70 0
71 72 73 74 75 0
76 77 78 79 80 0
81 82 83 84 85 0
86 87 88 89 90 0
91 92 93 94 95 0
96 97 98 99 100 0
-1 -6 0
-2 -7 0
-3 -8 0
-4 -9 0
-5 -10 0
-1 -16 0
-2 -17 0
-3 -18 0
-4 -19 0
-5 -20 0
-1 -26 0
-2 -27 0
-3 -28 0
-4 -29 0
-5 -30 0
-1 -36 0
-2 -37 0
-3 -38 0
-4 -39 0
-5 -40 0
-1 -51 0
-2 -52 0
-3 -53 0
-4 -54 0
-5 -55 0
-1 -56 0
-2 -57 0
-3 -58 0
-4 -59 0
-5 -60 0
-1 -81 0
-2 -82 0
-3 -83 0
-4 -84 0
-5 -85 0
-6 -31 0
-7 -32 0
-8 -33 0
-9 -34 0
-10 -35 0
-6 -41 0
-7 -42 0
-8 -43 0
-9 -44 0
-10 -45 0
-6 -46 0
-7 -47 0
-8 -48 0
-9 -49 0
-10 -50 0
-6 -51 0
-7 -52 0
-8 -53 0
-9 -54 0
-10 -55 0
-6 -56 0
-7 -57 0
-8 -58 0
-9 -59 0
-10 -60 0
-6 -76 0
-7 -77 0
-8 -78 0
-9 -79 0
-10 -80 0
-6 -81 0
-7 -82 0
-8 -83 0
-9 -84 0
-10 -85 0
-6 -91 0
-7 -92 0
-8 -93 0
-9 -94 0
-10 -95 0
-11 -16 0
-12 -17 0
-13 -18 0
-14 -19 0
-15 -20 0
-11 -36 0
-12 -37 0
-13 -38 0
-14 -39 0
-15 -40 0
-11 -41 0
-12 -42 0
-13 -43 0
-14 -44 0
-15 -45 0
-11 -46 0
-12 -47 0
-13 -48 0
-14 -49 0
-15 -50 0
-11 -66 0
-12 -67 0
-13 -68 0
-14 -69 0
-15 -70 0
-11 -71 0
-12 -72 0
-13 -73 0
-14 -74 0
-15 -75 0
-11 -86 0
-12 -87 0
-13 -88 0
-14 -89 0
-15 -90 0
-11 -96 0
-12 -97 0
-13 -98 0
-14 -99 0
-15 -100 0
-16 -26 0
-17 -27 0
-18 -28 0
-19 -29 0
-20 -30 0
-16 -31 0
-17 -32 0
-18 -33 0
-19 -34 0
-20 -35 0
-16 -56 0
-17 -57 0
-18 -58 0
-19 -59 0
-20 -60 0
-16 -61 0
-17 -62 0
-18 -63 0
-19 -64 0
-20 -65 0
-16 -76 0
-17 -77 0
-18 -78 0
-19 -79 0
-20 -80 0
-16 -91 0
-17 -92 0
-18 -93 0
-19 -94 0
-20 -95 0
-21 -26 0
-22 -27 0
-23 -28 0
-24 -29 0
-25 -30 0
-21 -31 0
-22 -32 0
-23 -33 0
-24 -34 0
-25 -35 0
-21 -36 0
-22 -37 0
-23 -38 0
-24 -39 0
-25 -40 0
-21 -41 0
-22 -42 0
-23 -43 0
-24 -44 0
-25 -45 0
-21 -61 0
-22 -62 0
-23 -63 0
-24 -64 0
-25 -65 0
-21 -76 0
-22 -77 0
-23 -78 0
-24 -79 0
-25 -80 0
-21 -86 0
-22 -87 0
-23 -88 0
-24 -89 0
-25 -90 0
-21 -91 0
-22 -92 0
-23 -93 0
-24 -94 0
-25 -95 0
-21 -96 0
-22 -97 0
-23 -98 0
-24 -99 0
-25 -100 0
-26 -41 0
-27 -42 0
-28 -43 0
-29 -44 0
-30 -45 0
-26 -56 0
-27 -57 0
-28 -58 0
-29 -59 0
-30 -60 0
-26 -61 0
-27 -62 0
-28 -63 0
-29 -64 0
-30 -65 0
-26 -71 0
-27 -72 0
-28 -73 0
-29 -74 0
-30 -75 0
-26 -91 0
-27 -92 0
-28 -93 0
-29 -94 0
-30 -95 0
-31 -36 0
-32 -37 0
-33 -38 0
-34 -39 0
-35 -40 0
-31 -46 0
-32 -47 0
-33 -48 0
-34 -49 0
-35 -50 0
-31 -56 0
-32 -57 0
-33 -58 0
-34 -59 0
-35 -60 0
-31 -61 0
-32 -62 0
-33 -63 0
-34 -64 0
-35 -65 0
-31 -66 0
-32 -67 0
-33 -68 0
-34 -69 0
-35 -70 0
-31 -86 0
-32 -87 0
-33 -88 0
-34 -89 0
-35 -90 0
-36 -41 0
-37 -42 0
-38 -43 0
-39 -44 0
-40 -45 0
-36 -46 0
-37 -47 0
-38 -48 0
-39 -49 0
-40 -50 0
-36 -66 0
-37 -67 0
-38 -68 0
-39 -69 0
-40 -70 0
-41 -46 0
-42 -47 0
-43 -48 0
-44 -49 0
-45 -50 0
-41 -56 0
-42 -57 0
-43 -58 0
-44 -59 0
-45 -60 0
-41 -61 0
-42 -62 0
-43 -63 0
-44 -64 0
-45 -65 0
-41 -66 0
-42 -67 0
-43 -68 0
-44 -69 0
-45 -70 0
-41 -71 0
-42 -72 0
-43 -73 0
-44 -74 0
-45 -75 0
-41 -81 0
-42 -82 0
-43 -83 0
-44 -84 0
-45 -85 0
-41 -86 0
-42 -87 0
-43 -88 0
-44 -89 0
-45 -90 0
-46 -51 0
-47 -52 0
-48 -53 0
-49 -54 0
-50 -55 0
-46 -56 0
-47 -57 0
-48 -58 0
-49 -59 0
-50 -60 0
-46 -66 0
-47 -67 0
-48 -68 0
-49 -69 0
-50 -70 0
-46 -76 0
-47 -77 0
-48 -78 0
-49 -79 0
-50 -80 0
-46 -86 0
-47 -87 0
-48 -88 0
-49 -89 0
-50 -90 0
-46 -91 0
-47 -92 0
-48 -93 0
-49 -94 0
-50 -95 0
-51 -56 0
-52 -57 0
-53 -58 0
-54 -59 0
-55 -60 0
-51 -61 0
-52 -62 0
-53 -63 0
-54 -64 0
-55 -65 0
-51 -76 0
-52 -77 0
-53 -78 0
-54 -79 0
-55 -80 0
-51 -91 0
-52 -92 0
-53 -93 0
-54 -94 0
-55 -95 0
-51 -96 0
-52 -97 0
-53 -98 0
-54 -99 0
-55 -100 0
-56 -66 0
-57 -67 0
-58 -68 0
-59 -69 0
-60 -70 0
-56 -71 0
-57 -72 0
-58 -73 0
-59 -74 0
-60 -75 0
-56 -76 0
-57 -77 0
-58 -78 0
-59 -79 0
-60 -80 0
-56 -81 0
-57 -82 0
-58 -83 0
-59 -84 0
-60 -85 0
-56 -91 0
-57 -92 0
-58 -93 0
-59 -94 0
-60 -95 0
-56 -96 0
-57 -97 0
-58 -98 0
-59 -99 0
-60 -100 0
-61 -66 0
-62 -67 0
-63 -68 0
-64 -69 0
-65 -70 0
-61 -71 0
-62 -72 0
-63 -73 0
-64 -74 0
-65 -75 0
-61 -81 0
-62 -82 0
-63 -83 0
-64 -84 0
-65 -85 0
-61 -86 0
-62 -87 0
-63 -88 0
-64 -89 0
-65 -90 0
-61 -91 0
-62 -92 0
-63 -93 0
-64 -94 0
-65 -95 0
-61 -96 0
-62 -97 0
-63 -98 0
-64 -99 0
-65 -100 0
-66 -71 0
-67 -72 0
-68 -73 0
-69 -74 0
-70 -75 0
-66 -76 0
-67 -77 0
-68 -78 0
-69 -79 0
-70 -80 0
-66 -86 0
-67 -87 0
-68 -88 0
-69 -89 0
-70 -90 0
-66 -91 0
-67 -92 0
-68 -93 0
-69 -94 0
-70 -95 0
-66 -96 0
-67 -97 0
-68 -98 0
-69 -99 0
-70 -100 0
-71 -91 0
-72 -92 0
-73 -93 0
-74 -94 0
-75 -95 0
-76 -86 0
-77 -87 0
-78 -88 0
-79 -89 0
-80 -90 0
-86 -91 0
-87 -92 0
-88 -93 0
-89 -94 0
-90 -95 0
-91 -96 0
-92 -97 0
-93 -98 0
-94 -99 0
-95 -100 0
